
List of user-set options:

                                    Name   Value                used
                           compl_inf_tol = 1                     yes
                         constr_viol_tol = 1                     yes
                            dual_inf_tol = 1000                  yes
                           linear_solver = ma97                  yes
                              ma86_small = 1e-30                  no
                                  ma86_u = 0.0001                 no
                              ma97_order = best                  yes
                              ma97_small = 1e-30                 yes
                            ma97_switch1 = at_start              yes
                            ma97_switch2 = od_hd_reuse           yes
                                  ma97_u = 1e-06                 yes
                               ma97_umax = 0.5                   yes
                                max_iter = 1000                  yes
                    max_refinement_steps = 20                    yes
                    min_refinement_steps = 5                     yes
                                 mu_init = 1e-06                 yes
           mu_superlinear_decrease_power = 1.25                  yes
                   nlp_scaling_min_value = 1e-08                 yes
                        option_file_name = Preset_Case_323_pf.opt  yes
                             output_file = ./tmp/Preset_Case_323_pf.output  yes
                      print_user_options = yes                   yes
        required_infeasibility_reduction = 1                      no
                                     tol = 1e-08                 yes
                   warm_start_bound_frac = 1e-20                 yes
                   warm_start_bound_push = 1e-20                 yes
                   warm_start_init_point = yes                   yes
              warm_start_mult_bound_push = 1e-20                 yes
                warm_start_mult_init_max = 1e+40                 yes
             warm_start_slack_bound_frac = 1e-20                 yes
             warm_start_slack_bound_push = 1e-20                 yes

******************************************************************************
This program contains Ipopt, a library for large-scale nonlinear optimization.
 Ipopt is released as open source code under the Eclipse Public License (EPL).
         For more information visit http://projects.coin-or.org/Ipopt
******************************************************************************

This is Ipopt version 3.12.10, running with linear solver ma97.

Number of nonzeros in equality constraint Jacobian...:   123443
Number of nonzeros in inequality constraint Jacobian.:      213
Number of nonzeros in Lagrangian Hessian.............:    49069

Total number of variables............................:    31591
                     variables with only lower bounds:    12912
                variables with lower and upper bounds:    15130
                     variables with only upper bounds:        0
Total number of equality constraints.................:    31483
Total number of inequality constraints...............:       25
        inequality constraints with only lower bounds:        4
   inequality constraints with lower and upper bounds:        0
        inequality constraints with only upper bounds:       21

iter    objective    inf_pr   inf_du lg(mu)  ||d||  lg(rg) alpha_du alpha_pr  ls
   0 -5.1239804e+00 4.07e-03 1.02e+00  -6.0 0.00e+00    -  0.00e+00 0.00e+00   0
   1 -5.1233907e+00 4.48e-01 3.26e+00  -6.0 4.29e+05    -  7.64e-05 1.36e-04h  4
   2 -5.1246086e+00 4.47e-01 5.16e+01  -6.0 1.79e+03    -  2.27e-01 1.97e-03h  1
   3 -5.2178563e+00 1.33e+00 2.58e+02  -6.0 1.78e+03    -  1.64e-01 1.52e-01f  1
   4 -5.2991387e+00 2.74e+00 4.63e+02  -6.0 1.67e+03    -  3.71e-01 1.83e-01h  1
   5 -5.2893793e+00 7.78e-04 9.05e+01  -6.0 3.08e+00  -4.0 3.13e-01 1.00e+00h  1
   6 -5.4814354e+00 2.25e+01 8.64e+02  -6.0 3.79e+03    -  9.55e-02 3.75e-01f  1
   7 -5.4669091e+00 1.02e+01 6.45e+05  -6.0 1.99e+01  -4.5 1.42e-01 5.47e-01h  1
   8 -5.4709725e+00 9.82e+00 6.01e+05  -6.0 9.38e+03    -  2.09e-05 4.57e-02h  1
   9 -5.4708591e+00 9.82e+00 6.24e+05  -6.0 7.66e+02  -3.1 7.52e-03 5.69e-04h  1
iter    objective    inf_pr   inf_du lg(mu)  ||d||  lg(rg) alpha_du alpha_pr  ls
  10 -5.4701717e+00 9.51e+00 6.15e+05  -6.0 5.79e+00  -3.6 1.97e-01 3.09e-02h  1
  11 -5.4490128e+00 2.96e+00 5.70e+04  -6.0 1.79e+00  -3.2 1.10e-01 6.89e-01h  1
  12 -5.4407985e+00 1.82e-02 1.24e+05  -6.0 2.10e+00  -3.7 1.94e-01 1.00e+00h  1
  13 -5.4515280e+00 7.32e-02 2.28e+04  -6.0 5.74e+00  -4.2 7.67e-01 1.00e+00h  1
  14 -5.4672337e+00 2.57e-01 1.53e+04  -6.0 1.03e+01  -4.6 5.48e-01 1.00e+00h  1
  15 -5.4810236e+00 6.45e-01 1.22e+04  -6.0 1.78e+03    -  6.22e-02 1.10e-01h  1
  16 -5.4851696e+00 2.21e-01 1.31e+02  -6.0 9.62e+00  -5.1 1.00e+00 1.00e+00h  1
  17 -5.4887314e+00 4.49e-02 8.37e+02  -6.0 2.74e+01  -5.6 8.89e-01 1.00e+00h  1
  18 -5.4967303e+00 5.82e-02 1.95e+00  -6.0 5.23e+01  -6.1 1.00e+00 1.00e+00h  1
  19 -5.5066315e+00 1.60e-01 1.13e+01  -6.0 6.32e+01  -6.5 7.83e-01 9.61e-01h  1
iter    objective    inf_pr   inf_du lg(mu)  ||d||  lg(rg) alpha_du alpha_pr  ls
  20 -5.5164166e+00 4.34e-01 2.23e+01  -6.0 1.19e+02  -7.0 7.43e-01 1.00e+00h  1
  21 -5.5170702e+00 6.58e-02 1.97e+00  -6.0 4.71e+01  -6.6 9.70e-01 1.00e+00h  1
  22 -5.5232102e+00 5.02e-01 6.34e+00  -6.0 1.29e+02  -7.1 1.00e+00 1.00e+00h  1
  23 -5.5252451e+00 9.11e-02 5.62e-01  -6.0 5.58e+01  -6.6 1.00e+00 1.00e+00h  1
  24 -5.5329936e+00 1.15e+00 6.41e+00  -6.0 1.96e+02  -7.1 9.95e-01 1.00e+00h  1
  25 -5.5380047e+00 2.53e-01 1.67e+00  -6.0 9.41e+01  -6.7 1.00e+00 1.00e+00h  1
  26 -5.5480622e+00 1.28e+00 7.26e+00  -6.0 4.89e+02  -7.2 3.48e-01 4.03e-01h  1
  27 -5.5541863e+00 7.68e-02 2.65e+02  -6.0 5.31e+01  -6.7 1.00e+00 1.00e+00h  1
  28 -5.5615532e+00 6.37e-01 2.99e+04  -6.0 8.51e+02  -7.2 2.18e-01 1.23e-01h  1
  29 -5.5660795e+00 4.46e-01 1.64e+04  -6.0 4.88e+01  -6.8 9.14e-01 1.00e+00h  1
iter    objective    inf_pr   inf_du lg(mu)  ||d||  lg(rg) alpha_du alpha_pr  ls
  30 -5.5748142e+00 3.50e-01 8.61e+01  -6.0 1.11e+02  -6.4 1.00e+00 1.00e+00h  1
  31 -5.5911376e+00 9.39e-01 9.52e+00  -6.0 1.83e+02  -6.8 1.00e+00 1.00e+00h  1
  32 -5.5994157e+00 8.01e-01 7.61e+00  -6.0 2.45e+02  -7.3 4.73e-01 3.94e-01h  1
  33 -5.5993753e+00 7.96e-01 7.55e+00  -6.0 6.12e+02  -7.8 4.25e-06 2.39e-03H  1
  34 -5.6324226e+00 1.08e+01 3.02e+03  -6.0 2.59e+03  -8.3 1.10e-01 4.92e-01f  1
  35 -5.6438585e+00 1.10e+01 2.28e+03  -6.0 2.54e+04  -7.9 3.72e-02 1.29e-02h  1
  36 -5.6939148e+00 1.16e+01 1.20e+04  -6.0 3.40e+03    -  5.97e-01 7.47e-01h  1
  37 -5.6920198e+00 1.07e+01 1.11e+04  -6.0 5.66e+01  -6.5 5.95e-02 7.52e-02h  1
  38 -5.6992886e+00 9.78e+00 9.98e+03  -6.0 1.26e+04    -  4.37e-02 7.65e-02h  1
  39 -5.7054696e+00 9.96e+00 1.16e+04  -6.0 1.65e+02  -4.3 1.60e-02 6.01e-02h  1
iter    objective    inf_pr   inf_du lg(mu)  ||d||  lg(rg) alpha_du alpha_pr  ls
  40 -5.6938349e+00 8.84e+00 1.07e+04  -6.0 4.53e+01  -4.8 2.16e-01 1.64e-01h  1
  41 -5.6708760e+00 7.23e-01 1.06e+03  -6.0 1.13e+01  -5.2 3.89e-02 1.00e+00h  1
  42 -5.6765986e+00 3.73e+00 5.28e+02  -6.0 1.99e+01  -5.7 5.73e-01 7.48e-01h  1
  43 -5.6785938e+00 3.90e-01 4.36e+01  -6.0 4.40e+01  -6.2 4.08e-01 1.00e+00h  1
  44 -5.6887054e+00 2.43e+00 2.34e+02  -6.0 1.42e+02  -6.7 4.31e-01 6.54e-01h  1
  45 -5.7124026e+00 1.65e+00 4.52e+02  -6.0 4.21e+02  -7.2 5.11e-01 7.67e-01h  1
  46 -5.7289708e+00 2.42e+00 6.56e+02  -6.0 3.39e+03    -  1.50e-01 6.22e-02h  1
  47 -5.7488905e+00 2.57e+00 8.14e+02  -6.0 2.16e+03    -  2.36e-01 1.85e-01h  1
  48 -5.7698767e+00 4.95e+00 9.61e+02  -6.0 1.85e+03    -  9.72e-01 2.85e-01h  1
  49 -5.8061144e+00 1.69e+01 2.17e+03  -6.0 1.49e+03    -  6.17e-01 1.00e+00h  1
iter    objective    inf_pr   inf_du lg(mu)  ||d||  lg(rg) alpha_du alpha_pr  ls
  50 -5.7856777e+00 3.01e-01 9.97e+01  -6.0 3.35e+02    -  1.32e-01 1.00e+00h  1
  51 -5.7841913e+00 8.31e-02 5.99e-01  -6.0 6.54e+01    -  1.00e+00 1.00e+00h  1
  52 -5.7841910e+00 8.41e-02 1.87e+00  -6.0 1.20e+02    -  4.86e-01 3.12e-02h  6
  53 -5.7841667e+00 2.39e-04 2.03e-04  -6.0 1.04e+00  -7.6 1.00e+00 1.00e+00h  1
  54 -5.7841671e+00 1.56e-03 7.40e-05  -6.0 2.86e+00  -8.1 1.00e+00 1.00e+00h  1
  55 -5.7841681e+00 5.82e-03 4.83e-04  -6.0 7.46e+00  -8.6 1.00e+00 1.00e+00h  1
  56 -5.7841699e+00 9.02e-03 1.59e-03  -6.0 1.36e+01  -9.1 1.00e+00 1.00e+00h  1
  57 -5.7841726e+00 8.93e-02 2.94e-03  -6.0 1.91e+01  -9.5 1.00e+00 1.00e+00h  1
  58 -5.7841762e+00 1.21e-02 5.26e+01  -6.0 6.10e+01    -  1.00e+00 1.00e+00H  1
  59 -5.7841721e+00 3.28e-03 1.39e+01  -6.0 7.45e+01    -  1.00e+00 1.00e+00H  1
iter    objective    inf_pr   inf_du lg(mu)  ||d||  lg(rg) alpha_du alpha_pr  ls
  60 -5.7841729e+00 2.77e-02 1.04e+01  -6.0 4.81e+01    -  1.00e+00 2.50e-01h  3
  61 -5.7841735e+00 5.76e-02 7.82e+00  -6.0 4.61e+01    -  1.00e+00 2.50e-01h  3
  62 -5.7841768e+00 2.84e-03 6.33e+00  -6.0 6.06e+01    -  1.00e+00 1.00e+00H  1
  63 -5.7841740e+00 3.29e-01 3.05e-02  -6.0 6.06e+01    -  1.00e+00 1.00e+00h  1
  64 -5.7841755e+00 4.20e-02 8.84e-03  -6.0 3.27e+01    -  1.00e+00 1.00e+00h  1
  65 -5.7841744e+00 4.35e-02 3.29e-03  -6.0 1.99e+01    -  1.00e+00 1.00e+00h  1
  66 -5.7841745e+00 1.58e-04 4.20e-05  -6.0 2.26e+00    -  1.00e+00 1.00e+00h  1
  67 -5.7841745e+00 4.71e-07 7.81e-08  -6.0 9.69e-02    -  1.00e+00 1.00e+00h  1
  68 -5.7842577e+00 2.07e+00 3.29e+01  -7.5 6.59e+02    -  4.23e-01 5.37e-01h  1
  69 -5.7842990e+00 1.43e+00 4.59e+00  -7.5 3.03e+02    -  8.37e-01 8.28e-01h  1
iter    objective    inf_pr   inf_du lg(mu)  ||d||  lg(rg) alpha_du alpha_pr  ls
  70 -5.7842906e+00 9.07e-02 1.24e-01  -7.5 7.14e+01    -  1.00e+00 1.00e+00h  1
  71 -5.7842901e+00 1.54e-06 2.76e-06  -7.5 3.90e-01    -  1.00e+00 1.00e+00h  1
  72 -5.7842901e+00 2.82e-10 2.78e-10  -7.5 7.19e-04    -  1.00e+00 1.00e+00h  1
  73 -5.7842916e+00 5.99e-03 8.15e-01  -9.0 2.23e+01    -  9.24e-01 8.36e-01h  1
  74 -5.7842919e+00 2.39e-04 5.04e-04  -9.0 3.73e+00    -  1.00e+00 1.00e+00h  1
  75 -5.7842919e+00 2.85e-10 3.09e-09  -9.0 3.24e-03    -  1.00e+00 1.00e+00h  1

Number of Iterations....: 75

                                   (scaled)                 (unscaled)
Objective...............:  -4.5189780419622334e+00   -5.7842918937116590e+00
Dual infeasibility......:   3.0875407730360562e-09    3.9520521894861519e-09
Constraint violation....:   2.8479893161674485e-10    2.8479893161674485e-10
Complementarity.........:   1.1134031871199160e-09    1.4251560795134925e-09
Overall NLP error.......:   3.0875407730360562e-09    3.9520521894861519e-09


Number of objective function evaluations             = 107
Number of objective gradient evaluations             = 76
Number of equality constraint evaluations            = 107
Number of inequality constraint evaluations          = 107
Number of equality constraint Jacobian evaluations   = 76
Number of inequality constraint Jacobian evaluations = 76
Number of Lagrangian Hessian evaluations             = 75
Total CPU secs in IPOPT (w/o function evaluations)   =    200.617
Total CPU secs in NLP function evaluations           =      2.826

EXIT: Optimal Solution Found.
